problems/csplib-prob056/sonet-models/noch/O2/lingeling/model_3_1-s2ring05-solution000001.solution
language Essence 1.3

letting network be mset({}, {1, 3, 4, 6, 7}, {1, 3, 4, 6, 7}, {1, 3, 4, 6, 7}, {2, 3, 5, 6, 8}, {6, 7, 8, 9, 10})
$ Here is a simple "visualisation" for the value above.
$ 
$  1  3  4  6  7
$  1  3  4  6  7
$  1  3  4  6  7
$  2  3  5  6  8
$  6  7  8  9 10

